NAME : XML100_2241_12
DIMENSION : 101
NB_CLUSTERS : 4
CLUSTERING_ALG : DBSCAN
CLUSTERING_PARAMS : eps(81), minSamples(3)
CLUSTERS
1 0
2 1 9 21 26 30 31 32 36 43 48 49 61 70 71 78 91 95 97
3 2 3 5 6 7 8 11 14 15 16 17 18 20 23 25 27 29 35 37 39 44 47 50 51 52 55 56 57 59 65 66 67 69 73 76 80 81 82 83 84 85 86 87 88 89 92 98 99 100
4 4 10 12 13 19 22 24 28 33 34 38 40 41 42 45 46 53 54 58 60 62 63 64 68 72 74 75 77 79 90 93 94 96
EOF